c A SAT instance generated from a 3-CNF formula that had 40 clauses and 20 variables
p cnf 20 40
-1 -16 14 0
-9 -13 7 0
3 -13 14 0
-19 -15 18 0
-8 -11 3 0
-6 -18 -14 0
18 1 15 0
-13 -18 -1 0
15 13 9 0
12 -19 -20 0
-19 15 -4 0
-18 -14 -20 0
-15 -9 -11 0
-4 -15 -10 0
13 19 -3 0
2 3 8 0
-6 11 -13 0
-11 12 -10 0
-3 6 14 0
-18 15 -9 0
17 7 -3 0
-19 -17 12 0
-9 15 -16 0
8 14 -19 0
-11 18 19 0
-15 12 -18 0
9 2 -1 0
16 1 -12 0
-11 -10 16 0
20 6 10 0
-7 4 11 0
-15 -17 -1 0
-9 -3 20 0
13 3 10 0
-13 9 10 0
-18 -9 -13 0
2 -11 10 0
-7 15 18 0
-10 -16 9 0
8 3 9 0
%
0

68 18 35 78 18 59 17 43 22 32 57 100 20 24 50 71 13 46 33 25
